10	5
0	5	5	2	4	1	3
1	4	6	9	8	7
2	2	8	10
3	5	9	10	7	8	6
4	3	10	9	6
5	5	9	8	10	6	7
6	1	11
7	1	11
8	1	11
9	1	11
10	1	11
11	0
0	0	0	0	0	0	0
1	10	5	1	5	0	0
2	9	0	0	2	0	0
3	10	4	0	0	0	3
4	4	0	5	0	0	0
5	5	1	4	0	0	3
6	6	0	0	1	0	1
7	5	5	3	3	5	2
8	9	0	2	1	2	0
9	10	5	3	5	0	0
10	10	0	4	0	0	2
11	0	0	0	0	0	0
10	8	7	5	6
